letting n =  10
letting blocks =  [[1, 1], [1, 5], [1, 6], [1, 7], [1, 8], [2, 1], [2, 3], [2, 4], [2, 5], [2, 8], [2, 10], [3, 1], [3, 2], [3, 5], [3, 6], [3, 8], [4, 1], [4, 2], [4, 4], [4, 6], [4, 7], [4, 9], [5, 2], [5, 3], [5, 6], [5, 7], [5, 10], [6, 1], [6, 2], [6, 5], [6, 6], [6, 7], [6, 10], [7, 2], [7, 4], [7, 6], [7, 8], [7, 9], [8, 2], [8, 4], [8, 5], [8, 8], [8, 9], [9, 3], [9, 4], [9, 5], [9, 7], [9, 9], [10, 1], [10, 3], [10, 4], [10, 7], [10, 8], [10, 10]]
